benchmark/results/graph__10-1000-0.10-02_5/graph__10-1000-0.10-02_5_QuintonOs_Benders_sub.lp
\ This file has been generated by DOcplex
\ ENCODING=ISO-8859-1
\Problem name: Quinton Bounded Benders_dual_sub

Minimize
 obj: 0.000773993808 pi_nr_a0 + 0.002590673575 pi_nr_a1
      + 0.001976284585 pi_nr_a2 + 0.001390820584 pi_nr_a3
      + 0.000911577028 pi_nr_a4 + 0.001177856302 pi_nr_a5
      + 0.001081081081 pi_nr_a6 + 0.001257861635 pi_nr_a7
      + 0.001245330012 pi_nr_a8 + 0.001379310345 pi_nr_a9 + pi_p_a0_a1
      + pi_p_a2_a3 + pi_p_a0_a9 + pi_p_a1_a2 + 1304 pi_d_a0_a1_proc_1
      + 1281 pi_d_a1_a0_proc_1 + 1304 pi_d_a0_a3_proc_1 + 1281 pi_d_a3_a0_proc_1
      + pi_d_a0_a4_proc_1 + 1304 pi_d_a0_a5_proc_1 + 1281 pi_d_a5_a0_proc_1
      + pi_d_a0_a7_proc_1 + pi_d_a0_a8_proc_1 + pi_d_a0_a9_proc_1
      + pi_d_a1_a2_proc_0 + 2585 pi_d_a1_a3_proc_1 + pi_d_a1_a3_proc_0
      + 2584 pi_d_a3_a1_proc_1 + 1304 pi_d_a1_a4_proc_1 + 1281 pi_d_a4_a1_proc_1
      + 2584 pi_d_a1_a5_proc_1 + 2585 pi_d_a5_a1_proc_1 + pi_d_a5_a1_proc_0
      + pi_d_a1_a6_proc_0 + 1304 pi_d_a1_a7_proc_1 + 1304 pi_d_a1_a7_proc_0
      + 1281 pi_d_a7_a1_proc_1 + 1281 pi_d_a7_a1_proc_0 + 1304 pi_d_a1_a8_proc_1
      + 1281 pi_d_a8_a1_proc_1 + 1304 pi_d_a1_a9_proc_1 + 1304 pi_d_a1_a9_proc_0
      + 1281 pi_d_a9_a1_proc_1 + 1281 pi_d_a9_a1_proc_0 + pi_d_a2_a3_proc_0
      + pi_d_a5_a2_proc_0 + pi_d_a6_a2_proc_0 + 1304 pi_d_a2_a7_proc_0
      + 1281 pi_d_a7_a2_proc_0 + 1304 pi_d_a2_a9_proc_0 + 1281 pi_d_a9_a2_proc_0
      + 1304 pi_d_a3_a4_proc_1 + 1281 pi_d_a4_a3_proc_1 + 2584 pi_d_a3_a5_proc_1
      + 2585 pi_d_a5_a3_proc_1 + pi_d_a5_a3_proc_0 + pi_d_a6_a3_proc_0
      + 1304 pi_d_a3_a7_proc_1 + 1304 pi_d_a3_a7_proc_0 + 1281 pi_d_a7_a3_proc_1
      + 1281 pi_d_a7_a3_proc_0 + 1304 pi_d_a3_a8_proc_1 + 1281 pi_d_a8_a3_proc_1
      + 1304 pi_d_a3_a9_proc_1 + 1304 pi_d_a3_a9_proc_0 + 1281 pi_d_a9_a3_proc_1
      + 1281 pi_d_a9_a3_proc_0 + 1304 pi_d_a4_a5_proc_1 + 1281 pi_d_a5_a4_proc_1
      + pi_d_a7_a4_proc_1 + pi_d_a8_a4_proc_1 + pi_d_a4_a9_proc_1
      + pi_d_a5_a6_proc_0 + 1304 pi_d_a5_a7_proc_1 + 1304 pi_d_a5_a7_proc_0
      + 1281 pi_d_a7_a5_proc_1 + 1281 pi_d_a7_a5_proc_0 + 1304 pi_d_a5_a8_proc_1
      + 1281 pi_d_a8_a5_proc_1 + 1304 pi_d_a5_a9_proc_1 + 1304 pi_d_a5_a9_proc_0
      + 1281 pi_d_a9_a5_proc_1 + 1281 pi_d_a9_a5_proc_0 + 1304 pi_d_a6_a7_proc_0
      + 1281 pi_d_a7_a6_proc_0 + 1304 pi_d_a6_a9_proc_0 + 1281 pi_d_a9_a6_proc_0
      + pi_d_a8_a7_proc_1 + pi_d_a7_a9_proc_1 + 2585 pi_d_a7_a9_proc_0
      + 2584 pi_d_a9_a7_proc_0 + pi_d_a8_a9_proc_1 + pi_y2_a0_proc_1
      + pi_y2_a1_proc_0 + pi_y2_a2_proc_0 + pi_y2_a3_proc_0 + pi_y2_a4_proc_1
      + pi_y2_a5_proc_0 + pi_y2_a6_proc_0 + pi_y2_a7_proc_1 + pi_y2_a8_proc_1
      + pi_y2_a9_proc_1
Subject To
 c1: pi_nr_a0 + pi_nr_a1 + pi_nr_a2 + pi_nr_a3 + pi_nr_a4 + pi_nr_a5 + pi_nr_a6
     + pi_nr_a7 + pi_nr_a8 + pi_nr_a9 - pi_y1_a0 - pi_y1_a1 - pi_y1_a2
     - pi_y1_a3 - pi_y1_a4 - pi_y1_a5 - pi_y1_a6 - pi_y1_a7 - pi_y1_a8
     - pi_y1_a9 >= 1
 c2: pi_p_a0_a1 - pi_p_a5_a0 + pi_p_a0_a9 - pi_p_a3_a0 + pi_d_a0_a1_proc_1
     - pi_d_a1_a0_proc_1 + pi_d_a0_a3_proc_1 - pi_d_a3_a0_proc_1
     + pi_d_a0_a4_proc_1 - pi_d_a4_a0_proc_1 + pi_d_a0_a5_proc_1
     - pi_d_a5_a0_proc_1 + pi_d_a0_a7_proc_1 - pi_d_a7_a0_proc_1
     + pi_d_a0_a8_proc_1 - pi_d_a8_a0_proc_1 + pi_d_a0_a9_proc_1
     - pi_d_a9_a0_proc_1 >= 0
 c3: 1292 pi_p_a0_a1 + 1292 pi_p_a0_a9 + 1292 pi_d_a0_a1_proc_1
     + 1292 pi_d_a0_a3_proc_1 + 1292 pi_d_a0_a4_proc_1 + 1292 pi_d_a0_a5_proc_1
     + 1292 pi_d_a0_a7_proc_1 + 1292 pi_d_a0_a8_proc_1 + 1292 pi_d_a0_a9_proc_1
     + pi_y1_a0 + pi_y2_a0_proc_1 >= 0
 c4: - pi_p_a0_a1 - pi_p_a2_a1 - pi_p_a6_a1 + pi_p_a1_a5 + pi_p_a1_a2
     - pi_d_a0_a1_proc_1 + pi_d_a1_a0_proc_1 + pi_d_a1_a2_proc_0
     - pi_d_a2_a1_proc_0 + pi_d_a1_a3_proc_1 + pi_d_a1_a3_proc_0
     - pi_d_a3_a1_proc_1 - pi_d_a3_a1_proc_0 + pi_d_a1_a4_proc_1
     - pi_d_a4_a1_proc_1 + pi_d_a1_a5_proc_1 + pi_d_a1_a5_proc_0
     - pi_d_a5_a1_proc_1 - pi_d_a5_a1_proc_0 + pi_d_a1_a6_proc_0
     - pi_d_a6_a1_proc_0 + pi_d_a1_a7_proc_1 + pi_d_a1_a7_proc_0
     - pi_d_a7_a1_proc_1 - pi_d_a7_a1_proc_0 + pi_d_a1_a8_proc_1
     - pi_d_a8_a1_proc_1 + pi_d_a1_a9_proc_1 + pi_d_a1_a9_proc_0
     - pi_d_a9_a1_proc_1 - pi_d_a9_a1_proc_0 >= 0
 c5: 386 pi_p_a1_a5 + 386 pi_p_a1_a2 + 386 pi_d_a1_a2_proc_0
     + 386 pi_d_a1_a3_proc_0 + 386 pi_d_a1_a5_proc_0 + 386 pi_d_a1_a6_proc_0
     + 386 pi_d_a1_a7_proc_0 + 386 pi_d_a1_a9_proc_0 + pi_y1_a1
     + pi_y2_a1_proc_0 >= 0
 c6: 552 pi_p_a1_a5 + 552 pi_p_a1_a2 + 552 pi_d_a1_a0_proc_1
     + 552 pi_d_a1_a3_proc_1 + 552 pi_d_a1_a4_proc_1 + 552 pi_d_a1_a5_proc_1
     + 552 pi_d_a1_a7_proc_1 + 552 pi_d_a1_a8_proc_1 + 552 pi_d_a1_a9_proc_1
     + pi_y1_a1 + pi_y2_a1_proc_1 >= 0
 c7: pi_p_a2_a1 + pi_p_a2_a3 - pi_p_a1_a2 - pi_p_a8_a2 - pi_d_a1_a2_proc_0
     + pi_d_a2_a1_proc_0 + pi_d_a2_a3_proc_0 - pi_d_a3_a2_proc_0
     + pi_d_a2_a5_proc_0 - pi_d_a5_a2_proc_0 + pi_d_a2_a6_proc_0
     - pi_d_a6_a2_proc_0 + pi_d_a2_a7_proc_0 - pi_d_a7_a2_proc_0
     + pi_d_a2_a9_proc_0 - pi_d_a9_a2_proc_0 >= 0
 c8: 506 pi_p_a2_a1 + 506 pi_p_a2_a3 + 506 pi_d_a2_a1_proc_0
     + 506 pi_d_a2_a3_proc_0 + 506 pi_d_a2_a5_proc_0 + 506 pi_d_a2_a6_proc_0
     + 506 pi_d_a2_a7_proc_0 + 506 pi_d_a2_a9_proc_0 + pi_y1_a2
     + pi_y2_a2_proc_0 >= 0
 c9: - pi_p_a2_a3 + pi_p_a3_a4 + pi_p_a3_a7 + pi_p_a3_a0 - pi_p_a9_a3
     - pi_d_a0_a3_proc_1 + pi_d_a3_a0_proc_1 - pi_d_a1_a3_proc_1
     - pi_d_a1_a3_proc_0 + pi_d_a3_a1_proc_1 + pi_d_a3_a1_proc_0
     - pi_d_a2_a3_proc_0 + pi_d_a3_a2_proc_0 + pi_d_a3_a4_proc_1
     - pi_d_a4_a3_proc_1 + pi_d_a3_a5_proc_1 + pi_d_a3_a5_proc_0
     - pi_d_a5_a3_proc_1 - pi_d_a5_a3_proc_0 + pi_d_a3_a6_proc_0
     - pi_d_a6_a3_proc_0 + pi_d_a3_a7_proc_1 + pi_d_a3_a7_proc_0
     - pi_d_a7_a3_proc_1 - pi_d_a7_a3_proc_0 + pi_d_a3_a8_proc_1
     - pi_d_a8_a3_proc_1 + pi_d_a3_a9_proc_1 + pi_d_a3_a9_proc_0
     - pi_d_a9_a3_proc_1 - pi_d_a9_a3_proc_0 >= 0
 c10: 719 pi_p_a3_a4 + 719 pi_p_a3_a7 + 719 pi_p_a3_a0 + 719 pi_d_a3_a1_proc_0
      + 719 pi_d_a3_a2_proc_0 + 719 pi_d_a3_a5_proc_0 + 719 pi_d_a3_a6_proc_0
      + 719 pi_d_a3_a7_proc_0 + 719 pi_d_a3_a9_proc_0 + pi_y1_a3
      + pi_y2_a3_proc_0 >= 0
 c11: 1178 pi_p_a3_a4 + 1178 pi_p_a3_a7 + 1178 pi_p_a3_a0
      + 1178 pi_d_a3_a0_proc_1 + 1178 pi_d_a3_a1_proc_1 + 1178 pi_d_a3_a4_proc_1
      + 1178 pi_d_a3_a5_proc_1 + 1178 pi_d_a3_a7_proc_1 + 1178 pi_d_a3_a8_proc_1
      + 1178 pi_d_a3_a9_proc_1 + pi_y1_a3 + pi_y2_a3_proc_1 >= 0
 c12: - pi_p_a3_a4 + pi_p_a4_a7 - pi_d_a0_a4_proc_1 + pi_d_a4_a0_proc_1
      - pi_d_a1_a4_proc_1 + pi_d_a4_a1_proc_1 - pi_d_a3_a4_proc_1
      + pi_d_a4_a3_proc_1 + pi_d_a4_a5_proc_1 - pi_d_a5_a4_proc_1
      + pi_d_a4_a7_proc_1 - pi_d_a7_a4_proc_1 + pi_d_a4_a8_proc_1
      - pi_d_a8_a4_proc_1 + pi_d_a4_a9_proc_1 - pi_d_a9_a4_proc_1 >= 0
 c13: 1097 pi_p_a4_a7 + 1097 pi_d_a4_a0_proc_1 + 1097 pi_d_a4_a1_proc_1
      + 1097 pi_d_a4_a3_proc_1 + 1097 pi_d_a4_a5_proc_1 + 1097 pi_d_a4_a7_proc_1
      + 1097 pi_d_a4_a8_proc_1 + 1097 pi_d_a4_a9_proc_1 + pi_y1_a4
      + pi_y2_a4_proc_1 >= 0
 c14: pi_p_a5_a0 - pi_p_a1_a5 - pi_p_a6_a5 - pi_d_a0_a5_proc_1
      + pi_d_a5_a0_proc_1 - pi_d_a1_a5_proc_1 - pi_d_a1_a5_proc_0
      + pi_d_a5_a1_proc_1 + pi_d_a5_a1_proc_0 - pi_d_a2_a5_proc_0
      + pi_d_a5_a2_proc_0 - pi_d_a3_a5_proc_1 - pi_d_a3_a5_proc_0
      + pi_d_a5_a3_proc_1 + pi_d_a5_a3_proc_0 - pi_d_a4_a5_proc_1
      + pi_d_a5_a4_proc_1 + pi_d_a5_a6_proc_0 - pi_d_a6_a5_proc_0
      + pi_d_a5_a7_proc_1 + pi_d_a5_a7_proc_0 - pi_d_a7_a5_proc_1
      - pi_d_a7_a5_proc_0 + pi_d_a5_a8_proc_1 - pi_d_a8_a5_proc_1
      + pi_d_a5_a9_proc_1 + pi_d_a5_a9_proc_0 - pi_d_a9_a5_proc_1
      - pi_d_a9_a5_proc_0 >= 0
 c15: 849 pi_p_a5_a0 + 849 pi_d_a5_a1_proc_0 + 849 pi_d_a5_a2_proc_0
      + 849 pi_d_a5_a3_proc_0 + 849 pi_d_a5_a6_proc_0 + 849 pi_d_a5_a7_proc_0
      + 849 pi_d_a5_a9_proc_0 + pi_y1_a5 + pi_y2_a5_proc_0 >= 0
 c16: 1262 pi_p_a5_a0 + 1262 pi_d_a5_a0_proc_1 + 1262 pi_d_a5_a1_proc_1
      + 1262 pi_d_a5_a3_proc_1 + 1262 pi_d_a5_a4_proc_1 + 1262 pi_d_a5_a7_proc_1
      + 1262 pi_d_a5_a8_proc_1 + 1262 pi_d_a5_a9_proc_1 + pi_y1_a5
      + pi_y2_a5_proc_1 >= 0
 c17: pi_p_a6_a1 - pi_p_a8_a6 + pi_p_a6_a5 - pi_d_a1_a6_proc_0
      + pi_d_a6_a1_proc_0 - pi_d_a2_a6_proc_0 + pi_d_a6_a2_proc_0
      - pi_d_a3_a6_proc_0 + pi_d_a6_a3_proc_0 - pi_d_a5_a6_proc_0
      + pi_d_a6_a5_proc_0 + pi_d_a6_a7_proc_0 - pi_d_a7_a6_proc_0
      + pi_d_a6_a9_proc_0 - pi_d_a9_a6_proc_0 >= 0
 c18: 925 pi_p_a6_a1 + 925 pi_p_a6_a5 + 925 pi_d_a6_a1_proc_0
      + 925 pi_d_a6_a2_proc_0 + 925 pi_d_a6_a3_proc_0 + 925 pi_d_a6_a5_proc_0
      + 925 pi_d_a6_a7_proc_0 + 925 pi_d_a6_a9_proc_0 + pi_y1_a6
      + pi_y2_a6_proc_0 >= 0
 c19: - pi_p_a3_a7 + pi_p_a7_a8 - pi_p_a4_a7 - pi_d_a0_a7_proc_1
      + pi_d_a7_a0_proc_1 - pi_d_a1_a7_proc_1 - pi_d_a1_a7_proc_0
      + pi_d_a7_a1_proc_1 + pi_d_a7_a1_proc_0 - pi_d_a2_a7_proc_0
      + pi_d_a7_a2_proc_0 - pi_d_a3_a7_proc_1 - pi_d_a3_a7_proc_0
      + pi_d_a7_a3_proc_1 + pi_d_a7_a3_proc_0 - pi_d_a4_a7_proc_1
      + pi_d_a7_a4_proc_1 - pi_d_a5_a7_proc_1 - pi_d_a5_a7_proc_0
      + pi_d_a7_a5_proc_1 + pi_d_a7_a5_proc_0 - pi_d_a6_a7_proc_0
      + pi_d_a7_a6_proc_0 + pi_d_a7_a8_proc_1 - pi_d_a8_a7_proc_1
      + pi_d_a7_a9_proc_1 + pi_d_a7_a9_proc_0 - pi_d_a9_a7_proc_1
      - pi_d_a9_a7_proc_0 >= 0
 c20: 1083 pi_p_a7_a8 + 1083 pi_d_a7_a1_proc_0 + 1083 pi_d_a7_a2_proc_0
      + 1083 pi_d_a7_a3_proc_0 + 1083 pi_d_a7_a5_proc_0 + 1083 pi_d_a7_a6_proc_0
      + 1083 pi_d_a7_a9_proc_0 + pi_y1_a7 + pi_y2_a7_proc_0 >= 0
 c21: 795 pi_p_a7_a8 + 795 pi_d_a7_a0_proc_1 + 795 pi_d_a7_a1_proc_1
      + 795 pi_d_a7_a3_proc_1 + 795 pi_d_a7_a4_proc_1 + 795 pi_d_a7_a5_proc_1
      + 795 pi_d_a7_a8_proc_1 + 795 pi_d_a7_a9_proc_1 + pi_y1_a7
      + pi_y2_a7_proc_1 >= 0
 c22: - pi_p_a7_a8 + pi_p_a8_a6 + pi_p_a8_a2 - pi_d_a0_a8_proc_1
      + pi_d_a8_a0_proc_1 - pi_d_a1_a8_proc_1 + pi_d_a8_a1_proc_1
      - pi_d_a3_a8_proc_1 + pi_d_a8_a3_proc_1 - pi_d_a4_a8_proc_1
      + pi_d_a8_a4_proc_1 - pi_d_a5_a8_proc_1 + pi_d_a8_a5_proc_1
      - pi_d_a7_a8_proc_1 + pi_d_a8_a7_proc_1 + pi_d_a8_a9_proc_1
      - pi_d_a9_a8_proc_1 >= 0
 c23: 803 pi_p_a8_a6 + 803 pi_p_a8_a2 + 803 pi_d_a8_a0_proc_1
      + 803 pi_d_a8_a1_proc_1 + 803 pi_d_a8_a3_proc_1 + 803 pi_d_a8_a4_proc_1
      + 803 pi_d_a8_a5_proc_1 + 803 pi_d_a8_a7_proc_1 + 803 pi_d_a8_a9_proc_1
      + pi_y1_a8 + pi_y2_a8_proc_1 >= 0
 c24: - pi_p_a0_a9 + pi_p_a9_a3 - pi_d_a0_a9_proc_1 + pi_d_a9_a0_proc_1
      - pi_d_a1_a9_proc_1 - pi_d_a1_a9_proc_0 + pi_d_a9_a1_proc_1
      + pi_d_a9_a1_proc_0 - pi_d_a2_a9_proc_0 + pi_d_a9_a2_proc_0
      - pi_d_a3_a9_proc_1 - pi_d_a3_a9_proc_0 + pi_d_a9_a3_proc_1
      + pi_d_a9_a3_proc_0 - pi_d_a4_a9_proc_1 + pi_d_a9_a4_proc_1
      - pi_d_a5_a9_proc_1 - pi_d_a5_a9_proc_0 + pi_d_a9_a5_proc_1
      + pi_d_a9_a5_proc_0 - pi_d_a6_a9_proc_0 + pi_d_a9_a6_proc_0
      - pi_d_a7_a9_proc_1 - pi_d_a7_a9_proc_0 + pi_d_a9_a7_proc_1
      + pi_d_a9_a7_proc_0 - pi_d_a8_a9_proc_1 + pi_d_a9_a8_proc_1 >= 0
 c25: 910 pi_p_a9_a3 + 910 pi_d_a9_a1_proc_0 + 910 pi_d_a9_a2_proc_0
      + 910 pi_d_a9_a3_proc_0 + 910 pi_d_a9_a5_proc_0 + 910 pi_d_a9_a6_proc_0
      + 910 pi_d_a9_a7_proc_0 + pi_y1_a9 + pi_y2_a9_proc_0 >= 0
 c26: 725 pi_p_a9_a3 + 725 pi_d_a9_a0_proc_1 + 725 pi_d_a9_a1_proc_1
      + 725 pi_d_a9_a3_proc_1 + 725 pi_d_a9_a4_proc_1 + 725 pi_d_a9_a5_proc_1
      + 725 pi_d_a9_a7_proc_1 + 725 pi_d_a9_a8_proc_1 + pi_y1_a9
      + pi_y2_a9_proc_1 >= 0

Bounds
       pi_y1_a0 Free
       pi_y1_a1 Free
       pi_y1_a2 Free
       pi_y1_a3 Free
       pi_y1_a4 Free
       pi_y1_a5 Free
       pi_y1_a6 Free
       pi_y1_a7 Free
       pi_y1_a8 Free
       pi_y1_a9 Free
End
