benchmark/results/graph__10-1000-0.10-02_5/graph__10-1000-0.10-02_5_QuintonOs_Benders_sub.txt
solution for: Quinton Bounded Benders_dual_sub
objective: 0.000123503
status: OPTIMAL_SOLUTION(2)
pi_p_a3_a4=0.000
pi_p_a5_a0=0.000
pi_p_a0_a9=0.000
pi_p_a1_a5=0.000
pi_p_a8_a2=0.000
pi_p_a9_a3=0.000
pi_d_a6_a1_proc_0=0.000
pi_d_a2_a6_proc_0=0.000
pi_d_a4_a7_proc_1=0.000
pi_d_a7_a8_proc_1=0.000
pi_y1_a0=-0.160
pi_y1_a1=-0.048
pi_y1_a2=-0.062
pi_y1_a3=-0.089
pi_y1_a4=-0.135
pi_y1_a5=-0.105
pi_y1_a6=-0.114
pi_y1_a7=-0.098
pi_y1_a8=-0.099
pi_y1_a9=-0.090
pi_y2_a7_proc_0=0.098
